1005 3441
1 8 1
1 12 1
1 14 -1
1 24 -1
1 1002 1
1 1003 -1
2 3 -1
2 14 1
2 25 -1
2 1001 -1
2 1005 -1
3 9 -1
3 13 -1
3 16 1
3 21 1
3 25 -1
3 1004 1
3 1005 1
4 5 1
4 6 -1
4 10 -1
5 15 1
5 21 1
5 1001 -1
5 1002 1
5 1003 1
6 18 -1
6 20 -1
6 22 -1
6 1003 -1
7 8 -1
7 11 -1
7 17 -1
7 19 1
7 20 1
7 21 -1
8 1004 -1
9 16 -1
9 17 -1
9 18 -1
9 20 1
9 1004 -1
10 11 1
10 13 -1
10 16 1
10 25 -1
10 1002 -1
10 1003 1
11 12 1
11 15 -1
11 21 1
11 1002 -1
11 1004 -1
11 1005 1
12 15 -1
12 17 1
12 19 -1
12 1001 1
12 1002 1
12 1004 -1
13 14 1
13 16 1
13 20 1
13 1001 1
13 1003 1
14 22 -1
14 23 -1
14 1002 1
15 1003 1
15 1004 1
15 1005 -1
16 23 -1
16 1003 1
16 1005 1
17 22 -1
17 1001 -1
17 1002 1
17 1004 -1
18 20 -1
18 1003 1
19 1002 1
19 1003 1
20 21 -1
20 22 1
20 1001 1
21 1003 1
22 1003 1
23 1001 -1
23 1004 -1
25 1005 1
26 30 -1
26 33 1
26 39 1
26 47 1
26 1002 -1
26 1003 -1
26 1004 -1
26 1005 1
27 29 -1
27 39 1
27 42 1
27 1004 -1
28 33 -1
28 39 -1
28 46 -1
28 48 1
28 1001 -1
28 1003 1
29 30 1
29 35 -1
29 40 -1
29 45 -1
29 1002 -1
29 1005 -1
30 1003 -1
30 1004 -1
30 1005 -1
31 41 -1
31 47 1
32 34 -1
32 35 1
32 41 -1
32 1001 1
33 1003 -1
34 38 1
34 42 -1
34 50 -1
34 1002 1
34 1003 1
34 1004 1
35 1001 1
35 1004 -1
35 1005 -1
36 40 1
36 46 -1
36 1003 1
37 41 -1
37 1002 -1
38 47 -1
38 49 1
38 1005 -1
39 46 -1
40 41 -1
40 47 -1
41 47 1
41 49 1
42 1002 1
43 46 -1
43 1003 1
43 1004 1
43 1005 -1
44 45 -1
44 50 1
44 1001 -1
45 1001 1
45 1003 -1
46 1002 1
46 1004 -1
47 48 -1
47 1001 1
47 1002 -1
47 1004 -1
47 1005 -1
48 1001 1
48 1004 1
49 50 1
49 1004 1
50 1003 -1
51 55 -1
51 56 1
51 73 1
51 1001 -1
51 1003 -1
52 68 1
52 1002 -1
52 1004 -1
53 1001 -1
53 1002 1
53 1005 1
54 59 1
54 61 -1
54 63 -1
54 71 1
54 1003 -1
55 58 -1
55 64 -1
55 74 -1
56 64 1
56 68 1
56 73 -1
56 1004 1
57 61 1
57 64 1
57 71 -1
58 60 -1
58 61 -1
59 60 -1
59 67 1
59 71 1
59 74 1
59 1003 -1
59 1005 1
60 73 -1
60 1003 1
61 62 -1
61 71 1
61 1002 1
62 64 -1
62 65 -1
62 67 -1
62 71 -1
63 67 1
63 75 1
63 1001 1
63 1005 -1
64 66 1
64 68 -1
64 71 1
64 1003 -1
65 66 -1
65 68 -1
65 74 -1
65 1001 -1
66 69 1
66 72 1
66 1003 1
67 1001 1
67 1002 -1
67 1004 -1
68 72 1
69 71 -1
69 1001 -1
70 71 -1
70 1003 1
71 73 -1
71 1001 -1
71 1003 -1
72 1002 -1
73 1004 -1
74 1002 1
74 1003 -1
74 1004 1
75 1003 -1
76 87 -1
77 78 1
77 86 -1
77 94 1
77 98 -1
77 1002 1
77 1004 -1
77 1005 1
78 83 -1
78 88 -1
78 92 -1
78 1001 1
79 81 1
79 88 -1
79 90 -1
79 91 -1
79 1001 1
79 1003 1
80 82 -1
80 84 1
80 90 1
80 93 -1
80 1002 -1
80 1003 1
81 91 1
81 95 -1
81 100 1
81 1001 -1
81 1003 1
81 1004 1
82 89 -1
82 93 1
82 94 -1
82 96 1
82 97 1
82 1002 1
83 88 1
83 92 -1
83 94 -1
83 99 -1
83 100 -1
83 1001 1
83 1002 1
84 85 1
84 86 1
84 88 1
84 90 1
84 1002 -1
84 1004 1
84 1005 -1
85 89 1
85 95 1
85 97 -1
85 1001 -1
86 94 1
86 97 1
86 100 -1
86 1005 1
87 88 -1
88 91 1
89 92 1
89 1005 1
90 1005 1
91 1001 -1
91 1003 -1
92 93 1
92 94 -1
92 1003 1
93 94 1
93 96 -1
93 1001 -1
94 96 1
94 1002 1
94 1005 -1
95 1004 1
97 100 1
97 1001 -1
97 1002 -1
97 1003 -1
98 100 -1
98 1003 1
98 1005 1
99 1004 1
100 1004 1
101 108 1
101 112 -1
101 114 1
101 119 1
102 107 -1
102 114 1
102 117 1
102 1002 1
103 104 1
103 109 -1
103 111 -1
103 114 1
103 117 -1
103 123 -1
103 1003 1
103 1004 1
104 1001 -1
105 107 1
105 116 -1
105 1001 1
105 1002 1
106 108 -1
106 115 1
106 125 -1
107 113 -1
107 117 -1
107 120 1
107 1001 1
107 1002 -1
108 112 1
108 116 -1
108 118 -1
108 1001 -1
109 115 -1
109 1002 1
109 1003 1
110 1002 1
111 113 1
111 120 1
111 1004 -1
112 119 -1
112 124 -1
112 1003 -1
112 1005 1
113 114 1
113 117 1
113 120 -1
113 124 -1
113 125 1
113 1003 -1
113 1004 -1
114 117 1
114 118 -1
114 1005 -1
115 117 -1
115 1005 1
116 120 -1
116 1002 -1
116 1005 -1
117 119 -1
117 120 -1
117 124 -1
117 125 -1
117 1003 -1
117 1004 -1
118 1002 -1
119 125 -1
119 1002 1
119 1004 -1
120 1001 -1
121 125 1
122 124 -1
122 125 -1
123 1001 1
123 1002 -1
124 1001 -1
124 1003 -1
124 1005 1
126 127 1
126 128 -1
126 132 1
126 136 1
126 1001 1
127 128 -1
127 129 1
127 134 -1
127 140 -1
127 141 -1
127 150 -1
127 1001 1
128 129 -1
128 138 1
128 140 1
128 1001 1
128 1002 -1
128 1003 1
129 132 1
129 138 1
129 139 1
129 141 -1
129 1003 -1
130 143 -1
130 1003 -1
131 132 -1
131 135 1
131 136 1
131 138 -1
131 149 1
131 1001 -1
131 1002 -1
131 1004 -1
132 135 -1
132 138 1
132 142 -1
132 145 1
132 147 1
132 1001 -1
133 135 1
133 137 -1
133 140 -1
133 143 1
133 145 -1
133 149 -1
133 1001 1
133 1003 1
134 144 1
134 148 1
134 1003 -1
135 137 -1
135 140 1
135 143 1
135 1001 -1
135 1004 -1
135 1005 1
136 141 -1
136 1004 1
137 141 -1
137 144 -1
137 1001 1
137 1003 -1
137 1004 1
137 1005 1
138 139 1
138 143 1
138 1004 1
139 142 1
139 144 -1
139 147 -1
139 1003 -1
139 1004 1
140 1001 1
140 1002 -1
140 1003 -1
141 143 1
141 146 -1
141 150 1
142 1001 -1
143 145 1
143 147 1
143 149 1
143 1004 -1
143 1005 1
147 1001 1
148 1005 -1
149 1002 -1
149 1003 -1
150 1001 -1
150 1003 -1
150 1004 -1
151 158 1
151 163 -1
151 165 -1
151 1001 1
151 1002 -1
152 154 -1
152 157 -1
152 160 -1
153 158 1
153 166 1
153 1004 1
153 1005 -1
154 157 1
154 159 1
154 169 1
155 159 -1
155 1001 1
155 1005 1
156 162 1
156 167 -1
156 169 -1
156 173 -1
156 174 -1
156 1001 1
156 1003 -1
157 159 1
157 1003 -1
157 1004 -1
158 164 -1
158 165 1
158 166 1
158 169 1
158 1002 1
158 1003 1
158 1004 -1
159 162 -1
159 168 -1
159 1004 1
159 1005 -1
160 172 1
160 1002 -1
161 166 -1
161 170 1
161 1001 -1
162 166 -1
162 1001 -1
163 164 1
163 168 1
163 172 1
164 170 1
164 172 -1
164 175 -1
164 1001 1
164 1005 1
165 166 1
165 168 -1
165 171 1
165 1003 -1
165 1004 -1
166 171 -1
166 1001 1
166 1004 -1
167 168 1
167 170 1
167 1001 -1
167 1002 -1
167 1004 -1
168 170 1
168 1001 -1
169 170 -1
169 1003 1
169 1005 1
170 172 1
170 1001 1
170 1002 1
171 1001 1
171 1003 1
171 1004 1
172 1001 -1
172 1002 1
172 1004 1
173 174 1
173 1001 -1
173 1005 -1
175 1001 -1
175 1004 1
175 1005 1
176 177 -1
176 188 -1
176 189 1
176 198 1
176 199 1
176 1003 1
177 178 -1
177 180 -1
177 183 -1
177 193 -1
177 197 -1
177 1002 1
178 182 -1
178 184 -1
178 191 -1
178 194 -1
178 196 1
178 199 -1
178 1003 1
178 1005 -1
179 181 1
179 185 -1
179 186 1
179 188 -1
179 199 -1
180 184 1
180 185 1
180 186 -1
180 190 -1
180 1002 1
180 1005 -1
181 182 -1
181 184 1
182 185 -1
182 189 1
182 190 1
182 1003 -1
183 186 1
183 194 1
183 196 -1
183 200 1
183 1003 -1
184 192 -1
184 200 1
184 1001 1
185 191 -1
185 192 1
185 195 -1
185 199 1
185 200 -1
185 1001 1
185 1002 1
185 1004 -1
186 187 -1
186 190 -1
186 191 -1
186 192 -1
186 193 -1
187 199 1
188 190 -1
189 192 1
189 198 1
189 1001 -1
189 1002 -1
190 192 1
190 193 1
190 1001 -1
191 193 -1
191 1001 1
191 1002 -1
192 196 1
192 197 1
193 200 -1
193 1003 -1
193 1004 1
193 1005 1
194 198 -1
194 1005 1
195 1003 1
195 1004 1
196 199 -1
196 1001 1
196 1004 -1
196 1005 -1
197 198 1
197 1002 -1
197 1005 -1
198 199 1
198 1001 1
198 1005 -1
199 1004 1
199 1005 -1
200 1001 -1
200 1003 -1
201 202 1
201 207 -1
201 210 -1
201 215 -1
201 216 -1
201 219 1
201 1003 -1
201 1005 1
202 207 1
202 208 -1
202 209 -1
202 219 1
202 221 1
202 1002 -1
202 1004 1
203 204 1
203 212 -1
203 215 -1
203 220 -1
203 222 1
203 1001 -1
203 1004 -1
204 205 -1
204 211 -1
204 213 -1
204 214 1
204 216 -1
204 217 -1
204 220 -1
204 221 1
204 1003 1
205 208 1
205 211 1
205 213 -1
205 1002 -1
205 1005 1
206 211 -1
206 214 -1
206 217 -1
206 1002 -1
206 1004 1
207 208 -1
207 212 1
207 218 -1
207 221 1
207 1001 -1
208 218 -1
208 219 -1
208 223 1
208 224 -1
208 1001 1
208 1004 -1
208 1005 -1
209 211 -1
209 213 -1
209 223 1
209 1003 1
209 1004 -1
209 1005 -1
210 211 1
210 212 -1
210 1002 1
210 1005 1
211 212 -1
211 225 1
212 219 -1
212 220 1
212 225 1
212 1001 1
212 1002 1
212 1003 -1
213 217 -1
213 222 -1
213 223 -1
213 1004 1
214 215 -1
214 1001 1
214 1002 -1
214 1003 1
215 217 -1
215 218 -1
215 219 -1
215 222 -1
215 225 1
215 1003 1
215 1004 -1
216 1003 1
216 1005 -1
217 220 -1
217 1003 -1
217 1005 -1
218 224 1
218 1001 1
218 1003 -1
218 1005 1
219 221 -1
219 1004 -1
219 1005 1
220 1005 -1
222 1002 -1
223 1004 1
224 225 -1
225 1005 -1
226 230 -1
226 231 -1
226 248 -1
226 1001 1
226 1005 -1
227 236 -1
227 238 -1
227 250 1
227 1001 1
227 1005 -1
228 235 1
228 237 -1
228 240 1
228 244 1
228 246 -1
228 1003 -1
228 1005 -1
229 240 -1
229 246 -1
229 1001 -1
229 1002 1
229 1004 1
230 233 -1
230 234 1
230 235 1
230 238 1
230 241 1
230 244 -1
230 1004 -1
231 239 1
231 240 -1
231 243 1
231 247 -1
231 249 -1
231 1002 1
232 241 -1
232 243 -1
232 246 -1
232 249 -1
232 250 1
232 1005 -1
233 245 -1
233 1003 -1
234 242 1
234 1004 -1
234 1005 -1
235 238 1
235 241 1
235 245 -1
235 247 1
235 1003 -1
235 1005 -1
236 240 -1
236 1004 1
237 241 1
237 1001 -1
237 1005 -1
238 248 -1
238 1001 -1
238 1005 -1
239 240 1
240 245 -1
240 1004 1
243 1004 -1
244 1003 -1
245 250 1
245 1001 -1
245 1004 1
246 248 1
246 1005 1
248 249 -1
248 1001 -1
249 1005 1
250 1001 1
250 1004 -1
250 1005 -1
251 260 1
251 266 1
251 275 -1
251 1002 -1
252 254 -1
252 261 1
252 263 -1
252 264 1
252 1005 1
253 255 1
253 269 1
253 271 -1
253 1001 -1
253 1002 1
253 1005 1
254 257 1
254 258 1
254 267 -1
255 260 -1
255 269 -1
256 259 1
256 1002 1
257 265 1
257 271 1
257 273 -1
257 1004 -1
258 259 -1
258 260 1
258 262 1
258 268 1
258 1001 1
258 1002 1
258 1005 1
259 260 1
259 261 1
259 270 -1
259 271 1
260 263 1
261 264 -1
261 271 -1
261 272 -1
261 275 1
261 1001 -1
261 1002 1
261 1005 1
262 269 1
262 270 -1
262 274 1
262 1002 -1
262 1003 1
262 1004 1
263 264 1
263 275 -1
263 1001 1
264 266 -1
264 267 1
264 270 1
264 271 1
264 272 -1
265 266 1
265 270 -1
265 273 -1
265 1001 1
266 271 1
266 1001 1
266 1002 -1
266 1005 -1
267 1002 1
268 269 -1
268 271 1
268 275 1
268 1005 1
269 1005 -1
270 274 -1
270 1001 1
270 1004 1
270 1005 -1
271 1005 -1
272 1002 1
273 1004 -1
273 1005 -1
274 1001 -1
274 1003 -1
274 1005 1
275 1001 1
275 1002 1
275 1004 1
276 280 1
276 291 -1
276 299 1
276 300 1
276 1002 1
277 285 -1
277 286 1
277 288 -1
277 290 1
277 292 1
277 293 -1
277 294 -1
277 1004 1
277 1005 -1
278 279 1
278 285 -1
278 287 -1
278 298 1
278 1005 1
279 289 1
279 293 1
279 295 -1
279 1001 -1
279 1003 1
279 1004 -1
280 281 1
280 289 -1
280 292 1
280 1003 -1
281 283 1
281 288 -1
281 289 -1
281 1001 -1
281 1002 -1
282 287 -1
282 294 -1
283 284 -1
283 297 1
283 1003 1
284 286 1
284 290 1
284 293 1
284 294 1
284 1004 -1
285 286 -1
285 288 1
285 293 1
285 1003 1
285 1004 1
286 290 1
286 295 -1
286 1005 1
287 289 1
287 1001 1
287 1002 -1
287 1003 -1
288 299 -1
288 1002 1
289 297 -1
289 1004 -1
289 1005 -1
290 292 1
290 293 1
290 1002 -1
291 296 1
291 1004 -1
292 299 -1
293 294 1
293 295 -1
293 1002 1
293 1004 -1
294 295 1
294 1005 -1
295 300 -1
295 1001 1
295 1002 1
295 1003 -1
296 1002 -1
297 300 1
297 1001 1
297 1004 -1
298 1003 -1
300 1005 -1
301 304 -1
301 314 -1
301 320 -1
301 323 1
301 325 1
302 304 1
302 306 1
302 307 1
302 312 1
302 314 1
302 322 -1
302 323 -1
302 324 -1
303 304 1
303 306 1
303 319 -1
303 320 -1
303 321 1
303 324 1
303 1001 1
304 310 1
304 312 1
304 317 1
304 321 -1
304 323 -1
304 1001 1
305 307 1
305 311 1
305 316 -1
305 318 -1
305 325 -1
305 1001 1
305 1004 -1
306 311 1
306 315 1
306 318 1
307 308 1
307 315 1
307 321 -1
307 322 -1
307 325 -1
307 1001 1
307 1003 1
307 1004 -1
308 318 -1
308 320 -1
308 324 -1
308 1001 -1
308 1002 1
309 314 -1
309 321 -1
309 323 -1
310 316 1
310 317 -1
310 318 -1
311 321 1
311 324 -1
312 324 1
313 325 1
313 1001 1
314 317 -1
314 320 1
314 1001 1
314 1002 -1
314 1003 1
314 1004 -1
315 1001 1
316 318 1
316 322 -1
316 1005 -1
317 1001 1
317 1003 1
317 1004 1
318 1002 -1
318 1003 -1
318 1004 -1
319 320 1
319 323 1
319 1002 -1
320 1001 -1
320 1002 -1
321 323 1
321 1001 -1
321 1002 1
321 1003 1
321 1005 -1
322 1001 -1
322 1003 -1
322 1005 -1
324 325 1
324 1002 -1
324 1003 -1
324 1005 1
326 327 -1
326 330 -1
326 339 1
326 343 -1
326 346 1
326 1001 -1
326 1002 -1
326 1004 -1
327 329 -1
327 330 1
327 345 1
327 349 1
327 1002 -1
327 1004 1
328 329 1
328 333 1
328 337 -1
328 1005 -1
329 330 -1
329 335 -1
329 337 1
329 1001 1
330 332 1
330 333 1
330 350 1
330 1004 1
331 338 -1
331 1004 1
331 1005 1
332 339 1
332 1003 -1
333 337 -1
333 340 -1
333 345 1
333 346 1
333 1004 -1
334 339 1
334 342 -1
334 344 1
334 1002 1
335 339 -1
335 340 -1
335 1001 1
336 348 1
336 1001 -1
336 1004 -1
336 1005 -1
337 338 1
337 339 -1
337 347 -1
337 1001 1
337 1005 1
338 1003 1
339 341 -1
339 349 -1
339 1001 1
339 1003 1
339 1004 -1
339 1005 -1
340 343 -1
340 344 -1
340 345 -1
340 1001 -1
340 1003 1
341 347 1
341 1001 1
341 1003 -1
342 345 -1
342 1004 1
343 345 1
343 1003 1
344 1001 1
344 1002 1
345 347 1
345 1004 -1
345 1005 1
346 349 1
347 349 -1
347 1001 1
348 349 -1
348 1003 1
349 1005 -1
350 1004 1
351 353 1
351 357 1
351 362 -1
351 365 1
351 373 -1
351 1005 1
352 361 1
352 371 -1
352 1004 -1
352 1005 1
353 355 1
353 360 1
353 363 1
353 366 1
353 375 -1
353 1003 -1
354 355 1
354 358 -1
354 371 1
354 373 -1
354 1002 -1
354 1004 -1
355 364 1
355 366 -1
355 374 -1
355 1001 -1
355 1002 1
355 1003 -1
355 1004 1
356 362 -1
356 363 1
356 1001 -1
356 1002 1
356 1004 -1
357 364 1
357 365 -1
357 369 -1
357 374 1
357 1005 1
358 361 1
358 365 -1
358 368 1
358 369 1
358 375 -1
358 1001 1
358 1004 -1
358 1005 1
359 366 1
360 365 1
360 368 -1
360 375 1
360 1001 1
360 1005 -1
361 365 -1
361 368 1
361 369 -1
361 1004 -1
362 368 1
362 373 1
362 1005 1
363 365 1
363 372 -1
363 1001 1
363 1003 -1
364 367 -1
364 369 1
364 372 1
365 371 -1
365 372 -1
365 1001 -1
365 1002 1
365 1005 1
366 375 1
366 1001 1
366 1002 -1
366 1004 -1
367 368 -1
367 369 -1
367 373 1
367 375 1
367 1003 1
368 369 -1
368 375 -1
369 375 -1
370 375 -1
370 1001 1
370 1005 1
371 374 1
371 1001 -1
371 1002 1
371 1005 1
373 374 1
374 1003 -1
374 1005 -1
375 1002 -1
375 1005 -1
376 382 1
376 398 1
376 1001 -1
377 379 -1
377 381 1
377 391 1
377 397 1
378 380 1
378 391 -1
378 394 1
378 1002 1
378 1003 1
379 389 -1
379 395 1
380 384 -1
380 388 -1
380 391 1
380 393 1
380 398 1
380 400 -1
381 386 1
381 387 -1
381 390 1
381 400 -1
381 1001 -1
381 1002 1
381 1005 1
382 389 -1
382 393 -1
382 1003 1
382 1005 -1
383 391 1
383 394 -1
384 386 1
384 391 -1
384 394 -1
384 400 -1
384 1005 -1
385 390 1
385 396 -1
385 1003 1
385 1004 1
386 391 -1
386 392 -1
386 400 -1
386 1004 1
387 389 -1
387 395 -1
387 399 1
387 1001 1
388 1001 1
388 1003 1
389 392 1
389 1001 -1
389 1002 -1
389 1004 1
390 396 -1
390 1002 -1
390 1004 1
391 395 1
391 397 1
391 398 -1
391 1001 -1
392 398 1
392 1002 1
392 1003 1
392 1005 -1
393 397 1
393 1001 -1
393 1005 -1
394 1001 1
394 1005 1
395 1003 -1
395 1004 -1
395 1005 1
396 400 -1
396 1003 -1
397 1005 1
398 399 -1
398 400 -1
398 1005 -1
399 1001 -1
400 1001 1
400 1003 1
401 402 1
401 414 -1
401 416 -1
401 423 -1
402 405 -1
402 1002 1
402 1003 -1
403 406 1
403 413 -1
403 414 -1
403 416 1
403 418 1
403 420 1
403 422 1
403 1002 1
403 1003 1
404 418 1
404 419 -1
404 424 1
404 1003 -1
404 1005 -1
405 406 -1
405 414 -1
405 419 -1
405 421 -1
405 1002 1
405 1003 -1
405 1004 1
406 409 1
406 413 -1
406 419 1
406 424 1
406 1002 1
406 1005 1
407 409 -1
407 410 -1
407 412 1
407 1002 1
407 1003 -1
407 1004 1
407 1005 1
408 415 -1
408 424 -1
408 1003 -1
409 411 1
409 1002 -1
409 1003 1
410 416 1
410 422 1
410 1003 1
410 1004 1
410 1005 -1
411 412 -1
411 414 1
411 418 -1
411 419 -1
411 1003 -1
411 1004 1
411 1005 -1
412 415 1
412 420 1
412 422 1
412 423 1
412 424 -1
412 425 1
412 1002 1
412 1004 1
413 417 -1
413 422 1
413 1002 -1
413 1004 1
414 1001 -1
415 417 1
415 418 1
415 1004 1
416 419 -1
416 425 1
416 1001 -1
416 1003 1
417 420 1
417 1003 -1
417 1004 1
418 425 1
418 1005 -1
419 1001 1
419 1004 1
420 1001 1
420 1004 1
421 424 1
421 1004 1
421 1005 1
422 1001 1
422 1003 1
423 1001 -1
423 1002 -1
423 1005 -1
424 1003 -1
425 1001 -1
425 1003 1
426 436 1
426 443 1
426 449 -1
426 1002 1
426 1004 1
427 442 -1
427 448 -1
427 449 1
427 1001 1
427 1005 -1
428 432 1
428 435 -1
428 437 1
428 438 -1
428 440 1
428 441 -1
428 1003 -1
428 1005 1
429 445 1
429 449 1
430 436 1
430 437 -1
430 1004 -1
431 432 1
431 436 1
431 438 -1
431 439 -1
431 446 -1
431 1005 -1
432 434 -1
432 1003 -1
433 1005 -1
434 443 1
434 1003 1
434 1004 1
435 439 1
435 445 -1
435 447 1
435 449 -1
435 1002 1
435 1004 1
436 437 -1
436 439 1
436 450 -1
436 1003 1
436 1005 -1
437 439 -1
437 448 1
437 1001 -1
437 1002 -1
437 1003 1
437 1004 -1
437 1005 1
438 442 1
438 448 1
438 1005 -1
439 443 1
439 446 -1
439 448 1
439 449 1
439 1002 -1
439 1005 1
440 444 -1
440 1004 -1
440 1005 1
441 445 -1
441 449 1
441 1001 1
441 1002 1
441 1004 -1
441 1005 1
442 1004 1
443 445 1
443 446 1
443 449 -1
443 1001 1
443 1003 1
443 1004 -1
444 445 -1
444 448 -1
444 1002 -1
444 1004 1
445 447 1
446 447 -1
446 448 -1
446 449 -1
446 1005 -1
447 1001 -1
448 1002 -1
450 1002 1
451 472 -1
451 1004 -1
451 1005 1
452 456 1
452 470 -1
452 1002 -1
453 454 -1
453 458 1
453 461 -1
453 470 1
453 1002 -1
454 459 -1
454 467 -1
454 475 -1
454 1001 1
454 1003 1
454 1005 -1
455 457 -1
455 468 1
455 1002 -1
455 1003 -1
455 1004 -1
456 458 1
456 468 -1
456 470 -1
456 1002 1
457 459 -1
457 467 1
457 471 -1
458 468 1
458 471 1
458 472 -1
458 475 1
458 1002 -1
459 462 1
459 471 -1
459 475 -1
459 1001 1
460 463 1
460 1001 1
461 463 -1
461 467 -1
461 471 1
461 475 1
461 1004 -1
462 465 1
462 474 1
462 475 -1
463 465 1
463 471 -1
463 1001 -1
463 1002 -1
463 1003 -1
463 1004 1
464 1005 1
465 466 1
465 468 1
465 475 -1
465 1001 1
465 1005 -1
466 472 1
466 475 1
466 1001 -1
466 1004 1
467 470 -1
467 1001 -1
467 1002 -1
467 1004 1
467 1005 -1
468 470 1
468 474 1
468 475 1
468 1004 -1
469 470 -1
469 1001 1
469 1005 1
470 473 -1
470 1002 1
470 1003 1
471 1002 -1
471 1003 1
472 1001 1
472 1005 1
473 474 -1
473 1003 -1
474 1001 -1
474 1002 -1
474 1005 1
475 1002 -1
476 479 -1
476 480 1
476 485 -1
476 493 -1
476 1002 -1
477 480 -1
477 1001 -1
478 482 1
478 486 1
478 493 -1
479 482 1
479 1005 1
480 488 1
480 490 1
480 497 1
480 498 -1
481 496 1
481 1002 1
481 1003 -1
482 483 1
482 487 -1
482 496 1
482 1002 -1
483 485 1
483 495 1
483 498 -1
483 1004 1
484 485 1
484 500 1
484 1004 -1
485 486 1
485 499 1
485 1002 -1
485 1003 1
485 1005 1
486 490 -1
486 497 -1
486 500 1
486 1003 -1
486 1004 1
486 1005 -1
487 488 -1
487 1005 1
488 492 1
488 495 1
488 496 -1
488 498 1
488 1001 -1
488 1005 -1
489 491 1
489 1002 1
490 491 -1
490 1005 1
491 1003 -1
491 1004 1
492 498 1
492 499 1
492 1001 1
492 1002 1
492 1004 -1
492 1005 -1
493 499 -1
493 1001 1
493 1005 -1
494 495 1
494 500 -1
494 1004 -1
494 1005 -1
495 1003 1
495 1005 -1
496 498 -1
496 500 -1
496 1002 1
496 1005 1
497 498 1
497 1002 1
498 1001 1
498 1002 -1
498 1003 1
498 1004 1
499 1002 1
499 1004 1
500 1001 -1
500 1005 1
501 502 1
501 515 -1
502 514 -1
502 517 1
502 1003 1
502 1005 1
503 508 1
503 509 -1
503 511 1
503 1005 -1
504 508 -1
504 509 1
504 512 -1
504 516 1
504 523 -1
504 1004 -1
505 506 -1
505 511 1
505 514 1
505 519 1
505 1003 -1
506 509 1
506 510 1
506 511 1
506 512 -1
506 520 1
506 1001 1
507 509 1
507 516 -1
507 518 1
507 520 -1
507 1001 -1
507 1003 1
507 1004 1
508 517 -1
508 1003 1
508 1004 1
509 524 -1
510 514 -1
510 517 1
510 520 -1
511 512 -1
511 515 1
511 525 1
511 1003 1
511 1004 1
512 515 -1
512 523 -1
512 1002 1
512 1003 -1
512 1005 -1
513 524 -1
513 1005 -1
514 516 1
514 520 -1
514 1001 -1
514 1004 -1
515 516 1
515 521 1
515 523 1
515 1001 1
515 1002 -1
515 1003 -1
515 1004 1
516 517 1
516 521 1
516 522 1
516 1001 1
516 1005 -1
517 1002 -1
517 1004 1
517 1005 -1
518 523 1
518 1003 1
519 522 -1
520 521 1
520 522 1
520 1003 1
522 523 1
522 525 -1
522 1002 1
522 1003 -1
523 1003 1
523 1004 -1
524 1005 1
526 538 -1
526 548 -1
527 544 1
527 547 1
527 1001 -1
528 532 1
528 540 1
528 544 1
528 550 -1
528 1001 -1
528 1002 -1
528 1003 1
528 1004 1
529 537 -1
529 540 -1
529 541 -1
529 1004 -1
530 535 -1
530 539 1
530 540 -1
530 549 -1
530 1002 -1
530 1005 -1
531 537 1
531 542 -1
531 1002 1
532 535 1
532 541 -1
532 543 -1
532 547 1
532 548 -1
532 1005 -1
533 547 1
533 550 -1
533 1002 1
533 1004 1
534 539 1
534 541 1
534 544 1
534 1003 1
534 1005 -1
535 544 -1
535 1003 1
536 537 -1
536 542 -1
536 545 1
536 1003 1
536 1004 -1
537 538 -1
538 1002 -1
538 1003 -1
538 1004 1
539 545 1
539 547 1
539 1002 -1
539 1003 1
540 549 1
540 1004 -1
540 1005 -1
541 550 1
541 1002 -1
541 1003 -1
541 1004 -1
541 1005 1
542 547 1
542 548 1
542 1001 1
542 1005 1
543 545 -1
543 549 -1
543 1004 -1
544 1002 -1
544 1004 1
545 1002 -1
545 1004 -1
546 1004 -1
547 1005 1
548 1004 1
548 1005 -1
549 1002 1
549 1003 -1
549 1004 -1
550 1003 -1
551 552 -1
551 556 1
551 560 -1
551 574 1
551 1002 -1
552 555 -1
552 565 -1
552 566 -1
552 574 -1
553 557 -1
553 558 -1
553 559 1
553 560 -1
553 561 -1
553 571 1
553 573 -1
553 574 -1
553 1001 -1
553 1002 1
553 1004 -1
554 575 -1
554 1002 -1
554 1003 -1
554 1005 -1
555 557 -1
555 562 -1
555 564 1
555 573 1
555 575 -1
555 1004 -1
555 1005 1
556 558 -1
556 561 -1
556 570 -1
556 571 -1
556 573 -1
556 1004 1
557 561 1
558 560 1
558 563 -1
558 569 -1
558 1005 1
559 561 1
559 1002 -1
559 1003 -1
559 1004 1
559 1005 1
560 573 1
560 1002 1
561 564 -1
561 566 1
562 565 -1
562 568 1
563 575 1
563 1002 -1
563 1003 1
564 566 1
564 575 1
564 1001 1
564 1003 1
564 1004 1
565 566 1
565 570 1
565 575 -1
565 1001 1
565 1004 1
566 568 -1
566 1002 -1
567 570 1
567 572 1
567 1001 1
567 1003 -1
567 1004 1
568 1004 -1
569 1003 -1
570 572 -1
570 1002 -1
570 1003 1
571 1003 -1
571 1005 -1
572 1002 -1
572 1005 -1
573 1002 1
573 1003 -1
574 1001 -1
574 1005 -1
575 1002 1
575 1004 1
576 579 -1
576 585 -1
576 590 1
577 579 1
577 589 -1
577 591 1
577 593 1
577 597 1
577 600 -1
578 580 1
578 582 1
578 585 1
578 588 1
578 592 -1
578 593 1
578 594 1
578 595 -1
578 1002 -1
579 596 1
579 598 1
579 1002 -1
579 1003 -1
580 594 1
580 600 1
580 1005 1
581 584 -1
581 590 1
581 595 1
581 1003 1
582 595 1
582 597 -1
582 1003 1
582 1004 -1
583 598 -1
584 585 1
584 596 1
584 599 -1
585 589 -1
585 597 -1
585 600 -1
585 1003 1
585 1004 1
586 590 1
586 592 -1
586 597 -1
586 598 1
586 1002 1
587 1004 -1
588 590 -1
588 594 1
588 597 -1
589 590 1
589 593 1
589 594 -1
589 599 -1
589 1001 -1
589 1002 -1
589 1003 1
589 1004 -1
591 1001 -1
591 1003 -1
592 593 -1
592 600 1
593 596 -1
594 597 1
594 1001 -1
595 596 -1
595 1001 -1
595 1002 -1
595 1003 -1
595 1005 1
596 1001 -1
596 1005 -1
597 1001 1
598 1001 1
598 1004 1
599 600 1
600 1001 1
600 1005 1
601 606 -1
601 620 -1
601 1001 -1
601 1002 1
601 1004 -1
602 606 -1
602 614 1
602 620 1
602 1001 -1
602 1005 -1
603 604 1
603 1003 -1
604 607 1
604 613 1
604 621 -1
605 610 -1
605 615 -1
605 620 -1
605 624 -1
605 625 1
605 1001 -1
606 608 -1
606 612 1
606 615 1
606 623 -1
606 624 1
606 1001 -1
607 611 -1
607 617 -1
607 619 -1
608 614 -1
608 624 1
608 625 -1
608 1001 -1
608 1003 -1
609 1002 1
609 1003 1
610 611 -1
610 613 -1
610 614 -1
610 615 -1
610 625 -1
610 1005 1
611 614 -1
611 620 -1
611 621 -1
611 1002 -1
611 1005 1
612 1001 -1
612 1002 1
612 1005 1
613 617 -1
613 618 1
613 1002 -1
613 1003 1
614 620 1
614 623 1
614 1001 1
615 1004 -1
616 624 1
616 1004 1
616 1005 1
617 621 -1
617 622 -1
617 625 -1
617 1002 -1
618 620 1
618 622 1
618 624 -1
618 1001 1
618 1002 -1
619 620 1
619 623 -1
620 622 1
620 1002 1
620 1004 -1
621 1002 1
622 624 1
623 625 -1
623 1005 -1
624 1001 -1
624 1004 1
625 1002 1
625 1003 1
626 628 1
626 629 1
626 632 -1
626 634 1
626 642 -1
626 1003 -1
627 628 1
627 638 -1
627 640 1
627 641 1
627 650 1
627 1003 1
628 630 1
628 1001 -1
628 1003 1
629 639 1
629 644 1
629 646 -1
629 1004 1
629 1005 1
630 640 -1
630 644 -1
630 1001 1
630 1002 1
630 1003 -1
631 647 1
631 1003 1
631 1004 1
632 633 1
632 640 1
632 1005 1
633 636 1
633 650 1
633 1002 -1
633 1005 1
634 639 -1
634 650 1
634 1001 -1
634 1005 1
635 640 1
635 641 1
635 642 -1
635 643 1
635 648 1
635 1004 -1
636 638 -1
636 640 1
636 645 1
636 648 1
637 639 -1
637 641 -1
637 1003 1
638 645 -1
638 1001 -1
639 643 -1
639 646 1
639 648 1
639 649 -1
639 1001 1
639 1002 1
640 645 -1
640 1005 -1
641 646 1
641 1003 1
642 1005 1
643 648 1
643 1005 1
644 649 -1
644 650 1
644 1003 -1
645 1005 1
646 647 -1
646 1001 -1
647 649 1
648 650 -1
648 1002 1
648 1004 1
649 1001 -1
649 1002 1
649 1005 -1
650 1003 -1
651 652 -1
651 663 -1
651 666 1
651 674 1
651 1005 1
652 654 -1
652 675 1
652 1004 -1
653 656 -1
653 658 -1
653 674 -1
653 1004 1
654 655 1
654 656 -1
654 666 1
654 674 1
654 675 1
655 656 1
655 661 1
655 665 1
655 667 1
655 668 1
655 670 1
655 671 -1
655 674 1
655 1002 1
655 1003 -1
656 657 -1
656 663 1
656 667 1
656 668 -1
657 666 1
657 670 -1
657 1001 1
657 1003 -1
657 1004 1
657 1005 1
658 659 -1
658 660 -1
658 666 1
658 671 1
658 1001 1
658 1003 1
658 1004 1
659 664 -1
659 1001 -1
659 1003 -1
660 1002 1
661 667 1
661 672 -1
661 1004 1
662 671 1
662 1001 -1
663 1002 1
664 672 1
664 673 1
664 1003 1
664 1005 1
665 667 -1
665 668 -1
665 669 1
665 670 1
665 673 1
665 674 1
665 1002 -1
665 1004 -1
666 1002 1
666 1003 -1
666 1004 1
666 1005 1
667 674 -1
667 1001 -1
667 1002 -1
667 1004 -1
667 1005 1
668 672 -1
669 671 1
669 675 1
669 1001 -1
669 1003 -1
670 671 -1
670 1002 1
670 1004 1
671 1001 1
671 1003 1
672 673 1
672 1004 -1
673 1004 -1
673 1005 1
674 1002 1
674 1004 1
675 1001 1
675 1003 1
676 677 -1
676 695 -1
676 696 1
676 1005 1
677 680 1
677 683 -1
677 688 -1
677 693 1
677 1004 -1
678 683 1
678 687 -1
678 691 -1
678 1002 -1
679 692 -1
679 1002 -1
679 1005 1
680 686 -1
680 695 1
680 700 1
681 686 1
681 689 1
681 698 -1
681 1001 -1
681 1002 -1
682 689 -1
682 692 1
682 1003 -1
683 688 1
683 691 1
683 695 -1
683 698 1
683 699 1
683 1003 1
683 1005 -1
684 685 -1
684 687 1
684 689 1
684 690 1
684 692 -1
684 696 1
685 690 -1
685 1001 -1
685 1004 -1
686 689 1
686 698 1
686 1001 -1
687 689 1
687 695 1
687 697 1
687 1001 -1
687 1002 -1
687 1003 -1
687 1004 1
688 1002 1
688 1004 1
690 694 -1
690 700 1
691 696 -1
691 700 1
691 1003 1
691 1005 1
692 697 1
692 699 -1
692 1001 -1
692 1005 -1
693 1001 -1
693 1004 1
693 1005 -1
694 697 1
694 1001 1
694 1004 1
694 1005 -1
695 700 1
695 1002 1
696 1001 -1
696 1003 1
696 1004 -1
697 1003 -1
697 1004 -1
698 1003 -1
699 1003 -1
699 1004 1
701 705 1
701 709 1
701 719 -1
701 1003 1
702 704 -1
702 709 1
702 717 -1
702 718 1
702 721 1
702 723 1
702 725 1
702 1002 -1
702 1003 1
703 706 1
703 710 1
703 713 1
703 715 1
703 717 1
703 718 -1
703 1001 1
703 1004 -1
704 719 -1
704 1004 1
705 715 -1
705 718 1
705 723 -1
705 1001 -1
705 1003 -1
705 1004 1
706 707 -1
706 715 1
706 718 -1
706 725 1
706 1004 1
707 709 -1
707 717 -1
707 725 -1
707 1002 1
707 1003 1
708 714 1
708 720 -1
708 1004 -1
709 714 1
710 1001 -1
710 1004 1
711 712 1
711 713 1
711 714 1
711 715 -1
711 717 -1
711 720 1
711 1005 -1
712 715 -1
712 720 1
712 721 1
712 1001 -1
712 1004 -1
713 724 -1
713 1002 1
713 1005 1
714 717 -1
714 1005 1
715 724 1
715 1003 -1
715 1005 1
716 723 -1
716 1002 1
716 1004 -1
716 1005 -1
717 720 1
717 723 1
717 1001 -1
717 1002 1
719 724 -1
719 1005 1
720 724 -1
720 1001 -1
720 1003 1
720 1005 1
721 723 1
721 1002 1
721 1005 1
723 1001 1
723 1004 1
723 1005 -1
724 725 1
724 1001 -1
724 1005 1
725 1002 -1
726 735 -1
726 747 -1
727 730 -1
727 734 -1
727 745 1
727 749 1
727 1003 1
728 736 -1
728 738 -1
728 741 1
728 750 1
729 731 -1
729 732 1
729 744 1
729 750 -1
729 1005 -1
730 740 1
730 746 -1
730 1004 1
730 1005 -1
731 732 1
731 742 -1
731 1001 1
731 1003 -1
731 1005 -1
732 737 1
732 741 -1
732 748 -1
732 1001 -1
732 1002 1
732 1003 1
733 742 1
733 748 1
733 1004 -1
734 742 1
734 747 -1
734 1003 1
735 739 -1
735 740 -1
735 746 -1
735 1001 1
736 743 -1
736 1002 1
736 1004 1
737 740 1
737 743 1
737 1001 1
737 1002 -1
738 740 1
738 1001 1
738 1005 -1
739 745 1
739 1001 1
739 1003 1
739 1004 1
740 747 1
740 748 -1
740 1001 1
740 1004 1
741 742 -1
741 744 -1
742 745 1
742 1001 -1
742 1004 1
743 746 1
743 749 -1
743 1001 1
744 1003 -1
744 1005 1
745 1004 1
747 1001 1
747 1002 1
747 1003 -1
748 749 -1
748 1003 1
748 1004 -1
749 1001 1
749 1003 1
749 1004 1
750 1002 1
751 756 -1
751 772 1
751 1002 1
751 1005 1
752 755 1
752 760 1
752 774 1
752 1001 1
752 1002 -1
752 1005 -1
753 754 -1
753 755 1
753 758 -1
753 760 -1
753 771 1
753 773 -1
753 1003 -1
753 1005 1
754 756 1
754 765 1
754 769 -1
754 770 -1
754 771 1
754 1001 1
754 1004 1
755 756 1
755 762 -1
755 768 -1
755 771 -1
756 767 1
756 1003 1
756 1005 -1
757 758 1
757 767 1
757 774 1
757 1001 1
757 1003 1
757 1004 1
758 769 1
758 772 -1
758 774 1
759 763 1
759 771 -1
759 1001 -1
759 1003 1
759 1004 -1
760 762 1
760 1003 -1
761 763 -1
761 769 -1
761 775 1
761 1001 -1
761 1003 -1
762 764 1
762 766 1
762 1003 1
762 1005 -1
763 766 1
763 772 -1
763 773 -1
763 775 1
763 1004 -1
763 1005 -1
764 766 1
764 767 1
764 770 -1
764 1005 1
765 767 -1
765 773 1
765 1002 1
766 769 1
766 773 -1
767 773 1
767 775 1
767 1004 -1
768 771 1
768 1003 -1
768 1004 1
769 774 -1
769 1001 1
769 1003 1
769 1004 1
770 771 1
770 1003 1
771 1005 -1
772 774 -1
772 775 1
772 1004 -1
773 774 1
774 1002 -1
775 1003 -1
776 782 -1
776 785 1
776 790 -1
776 791 -1
776 799 1
776 1005 -1
777 778 -1
777 781 1
777 782 1
777 784 -1
777 794 -1
777 796 1
777 1002 -1
777 1003 -1
778 779 -1
778 782 1
778 786 1
778 800 -1
778 1002 1
779 784 1
779 788 -1
779 792 1
779 1004 -1
780 781 -1
780 783 -1
780 785 1
780 795 1
780 1002 1
781 782 1
781 797 -1
781 1004 1
782 787 -1
782 791 1
782 792 -1
782 795 1
782 796 -1
782 797 -1
782 1004 1
783 792 1
783 794 -1
783 796 1
783 799 1
783 800 -1
784 793 -1
784 796 1
785 790 -1
785 793 1
785 797 1
785 1004 1
786 789 -1
786 792 -1
786 795 -1
786 799 1
786 800 -1
786 1002 1
786 1003 -1
787 1001 1
787 1002 1
788 789 1
788 790 -1
788 798 1
788 799 1
788 1005 1
789 791 -1
789 1004 -1
789 1005 -1
790 793 -1
790 795 1
790 796 1
790 1003 -1
791 1002 -1
793 1002 -1
793 1003 -1
793 1004 1
794 1003 1
794 1005 -1
795 1002 -1
795 1005 1
796 1001 -1
796 1002 -1
796 1004 1
797 800 1
797 1001 1
797 1003 -1
797 1004 1
799 1004 1
800 1005 1
801 809 1
801 812 -1
801 815 1
801 819 1
801 822 1
801 1002 -1
801 1004 -1
802 808 -1
802 810 -1
802 811 1
802 815 1
802 817 -1
802 825 1
802 1003 -1
802 1005 -1
803 804 -1
803 807 1
803 819 -1
803 1001 -1
803 1003 1
804 805 1
804 815 -1
804 820 -1
804 822 -1
804 823 -1
804 1005 1
805 814 -1
805 1001 1
805 1004 1
806 809 1
806 810 1
806 817 -1
806 1002 1
807 815 -1
807 818 -1
807 819 1
807 1001 -1
807 1004 1
808 817 -1
808 818 1
808 824 -1
808 1001 1
809 810 -1
809 819 -1
809 822 -1
809 1002 -1
809 1005 1
810 819 -1
810 821 1
810 1004 -1
810 1005 1
811 812 1
811 1001 1
811 1002 -1
811 1005 1
812 822 1
813 818 1
813 1004 -1
813 1005 1
814 824 -1
814 825 1
814 1002 -1
815 825 -1
816 817 1
816 819 -1
816 1001 1
817 1004 1
817 1005 -1
818 1001 -1
818 1003 1
819 822 -1
819 824 1
819 1004 1
820 822 1
820 1003 -1
820 1004 1
821 1001 1
821 1005 -1
822 1002 1
822 1004 1
822 1005 -1
823 824 1
823 1002 1
823 1004 1
824 1005 -1
825 1002 1
825 1004 -1
825 1005 1
826 831 -1
826 836 1
826 839 -1
826 840 -1
826 843 -1
826 845 1
826 850 1
827 837 -1
827 844 1
827 849 1
827 1001 -1
827 1002 1
827 1003 1
827 1005 1
828 829 -1
828 842 1
828 846 -1
828 1005 -1
829 840 -1
829 841 -1
829 842 -1
829 843 1
829 1001 -1
829 1003 -1
829 1004 1
830 840 1
830 1002 -1
830 1003 -1
830 1005 -1
831 844 1
832 834 -1
832 835 1
832 837 -1
832 838 1
832 841 1
832 842 -1
832 846 1
832 847 -1
833 838 -1
833 1001 -1
833 1002 -1
834 836 1
834 847 1
834 849 1
834 1001 -1
834 1004 -1
835 845 -1
835 846 1
836 838 1
836 840 -1
836 841 1
836 845 -1
836 847 1
836 1004 -1
837 838 -1
837 848 1
837 1002 1
838 839 -1
838 840 1
838 842 1
839 844 -1
839 1001 1
839 1005 -1
840 846 -1
841 848 1
841 1003 -1
842 845 -1
842 846 -1
842 1005 -1
843 1002 1
843 1004 1
844 845 1
844 1001 -1
846 1005 -1
848 850 1
848 1001 1
848 1002 1
848 1005 1
849 1001 1
849 1005 -1
850 1005 1
851 862 1
851 863 1
851 1002 1
852 854 1
852 866 1
852 867 1
852 872 -1
853 855 -1
853 860 -1
853 1002 -1
853 1005 -1
855 869 1
855 875 -1
855 1001 -1
855 1002 1
855 1004 1
856 864 1
856 868 -1
856 869 1
856 874 -1
856 1001 1
856 1002 1
857 862 1
857 874 1
858 870 1
858 871 1
858 1002 1
859 863 1
859 1001 -1
859 1004 1
859 1005 1
860 863 -1
860 866 1
860 869 1
860 1003 -1
860 1005 1
861 868 1
861 871 -1
861 1001 1
861 1003 1
861 1005 1
862 863 -1
862 865 1
862 1004 1
862 1005 1
863 866 -1
863 871 1
863 1002 -1
863 1003 -1
864 867 -1
864 871 1
864 1002 1
864 1003 -1
865 872 1
865 1004 1
866 867 1
867 868 1
867 869 1
867 871 1
867 1001 1
868 871 1
868 1004 1
869 870 1
869 873 -1
869 1001 1
870 1001 1
870 1003 1
870 1004 -1
871 872 1
871 1002 -1
871 1005 -1
873 875 1
873 1003 1
874 1002 -1
874 1004 1
875 1002 -1
876 878 -1
876 883 -1
876 885 -1
876 889 -1
876 899 1
876 1003 1
877 878 1
877 882 -1
877 885 -1
877 887 1
877 892 -1
877 1003 -1
877 1005 -1
878 882 -1
878 885 1
878 890 -1
878 1004 -1
878 1005 -1
879 885 -1
879 890 1
879 898 -1
879 1001 1
879 1003 -1
880 881 -1
880 1003 -1
880 1005 -1
881 892 -1
881 1003 -1
881 1004 -1
882 884 -1
882 887 -1
882 892 -1
882 896 -1
882 1004 1
883 889 -1
883 897 -1
883 899 1
883 900 -1
883 1002 -1
883 1005 1
884 900 1
884 1005 1
885 891 -1
885 892 1
885 895 -1
885 899 1
885 1003 1
886 892 -1
886 893 1
886 894 -1
886 897 -1
886 1001 -1
886 1002 -1
886 1003 -1
887 892 -1
887 893 -1
887 900 1
887 1005 1
888 889 -1
888 897 -1
888 899 1
888 1002 1
888 1003 -1
888 1004 -1
889 896 -1
889 1001 1
889 1002 1
889 1003 1
889 1004 -1
889 1005 -1
890 893 1
890 899 -1
890 1004 -1
891 893 -1
891 1001 1
891 1002 1
892 897 -1
893 895 1
893 896 1
893 1003 -1
893 1005 1
894 898 1
894 900 1
894 1005 -1
895 900 -1
895 1002 -1
896 897 -1
896 1003 -1
897 898 1
897 1003 1
897 1004 -1
898 1002 1
899 900 1
899 1003 1
899 1004 1
900 1001 -1
900 1004 1
901 906 -1
901 920 -1
901 1002 1
902 906 1
902 908 1
902 915 -1
902 918 1
902 923 1
902 1001 1
903 911 -1
903 916 1
903 922 1
903 1001 -1
904 910 -1
904 921 -1
904 923 1
904 1004 -1
905 917 -1
905 919 -1
905 920 -1
905 1003 -1
906 916 -1
906 1001 1
906 1002 -1
906 1005 1
907 908 1
907 916 -1
907 925 -1
907 1001 1
907 1002 -1
908 919 -1
908 920 1
908 1001 -1
908 1002 -1
908 1003 -1
909 910 1
909 912 1
909 921 -1
909 1001 1
909 1002 -1
910 913 -1
910 915 -1
910 1004 -1
911 920 -1
911 924 -1
911 1001 -1
911 1002 1
911 1003 -1
912 915 1
912 1001 -1
912 1002 -1
912 1003 -1
912 1004 -1
913 1001 1
913 1005 1
914 918 1
914 920 -1
914 922 -1
914 1001 1
914 1003 -1
915 918 1
915 1002 -1
916 917 -1
916 1004 -1
917 923 1
917 1003 -1
918 1002 1
919 1005 1
920 922 -1
920 924 -1
920 1003 1
920 1004 1
921 1002 1
921 1005 -1
922 1003 -1
923 1001 -1
923 1002 1
924 1005 1
925 1002 -1
926 937 -1
926 948 1
926 1001 -1
926 1002 1
926 1003 1
926 1004 -1
927 929 1
927 935 -1
927 940 -1
927 943 -1
927 1003 1
928 929 1
928 1001 1
928 1004 -1
929 932 1
929 933 -1
929 944 -1
929 1004 -1
930 933 1
930 936 -1
930 938 1
930 941 1
930 942 -1
930 948 1
930 1002 -1
931 1002 1
932 938 1
932 940 1
932 941 -1
932 945 -1
932 950 1
932 1003 -1
932 1004 -1
933 938 1
933 939 1
933 942 1
933 943 -1
933 945 1
933 1002 1
934 948 1
934 1001 1
934 1002 1
934 1004 -1
935 942 -1
935 950 1
935 1001 -1
935 1002 1
936 938 -1
936 944 1
936 947 -1
936 948 -1
936 949 -1
936 1001 -1
936 1003 -1
936 1004 -1
936 1005 -1
937 943 1
937 946 -1
937 948 1
937 949 -1
937 1002 1
938 943 1
938 946 -1
938 1003 1
938 1004 -1
938 1005 -1
939 940 -1
939 943 -1
939 950 -1
939 1003 -1
940 941 -1
940 942 1
940 949 -1
941 947 -1
941 1005 1
942 944 -1
942 1001 1
942 1004 1
942 1005 1
943 1004 -1
943 1005 1
944 1001 -1
945 1002 1
946 1003 -1
947 1002 1
949 1001 1
951 957 -1
951 1002 -1
951 1005 -1
952 959 -1
952 960 -1
952 970 -1
952 1002 1
953 955 1
953 960 -1
953 1002 1
953 1004 -1
954 955 -1
954 972 -1
954 975 1
954 1001 1
954 1002 -1
954 1003 -1
955 957 -1
955 963 -1
955 968 1
955 970 -1
955 1001 1
956 957 -1
956 974 1
956 1001 -1
956 1004 1
956 1005 -1
957 964 -1
957 969 1
957 970 -1
957 1001 -1
957 1005 1
958 959 1
958 967 1
958 975 -1
958 1002 1
958 1003 1
958 1005 -1
959 960 -1
959 967 1
959 970 1
959 1001 -1
959 1005 -1
960 963 1
960 971 -1
960 974 1
960 1005 -1
961 965 1
961 970 -1
961 1004 1
962 964 1
962 1005 1
963 973 -1
963 1001 1
963 1002 -1
964 969 1
964 971 1
964 1001 1
964 1005 1
965 970 1
965 1001 1
965 1003 1
965 1004 1
966 967 -1
966 968 1
966 971 1
966 974 1
966 1004 -1
967 968 1
967 1001 1
967 1003 -1
967 1005 -1
968 973 -1
968 1004 -1
969 1001 -1
969 1004 -1
969 1005 1
970 975 -1
970 1004 1
971 973 -1
971 1003 1
972 1001 -1
972 1003 -1
973 1002 -1
974 1005 1
975 1001 1
975 1002 -1
976 987 -1
976 997 1
976 1000 1
976 1003 -1
976 1005 -1
977 994 -1
977 1002 -1
977 1004 -1
978 982 1
978 984 1
978 987 1
978 997 -1
978 1002 -1
978 1004 1
979 984 1
979 1004 1
980 982 -1
980 983 1
980 984 1
980 985 1
980 993 -1
980 994 1
980 996 -1
981 989 1
981 998 1
981 999 1
981 1000 -1
982 1002 -1
982 1005 -1
983 984 -1
983 988 -1
983 990 -1
983 998 1
983 1001 1
984 991 1
984 992 1
984 996 -1
984 1001 1
984 1002 1
984 1003 -1
984 1005 1
985 991 1
985 999 1
986 993 1
986 997 1
987 989 1
987 992 1
988 997 1
988 1003 1
988 1005 -1
989 990 -1
989 1002 1
990 991 1
990 994 1
990 1002 1
991 1000 -1
991 1001 1
992 999 -1
992 1001 1
992 1002 -1
993 1000 -1
993 1002 -1
993 1004 -1
994 997 -1
994 1001 -1
995 998 -1
995 1000 -1
995 1002 -1
996 999 -1
996 1001 -1
997 1000 1
997 1004 1
998 999 -1
998 1002 1
998 1005 -1
999 1000 -1
999 1004 1
1000 1004 1
1001 1003 1
1002 1005 1
1003 1005 1
